<number of tasks>
50

<cycle time>
1000

<order strength>
0.6


<task times>
1 146
2 69
3 321
4 52
5 132
6 28
7 254
8 553
9 144
10 65
11 237
12 526
13 297
14 123
15 466
16 597
17 199
18 561
19 34
20 218
21 152
22 432
23 145
24 33
25 323
26 385
27 164
28 121
29 521
30 53
31 475
32 42
33 174
34 64
35 54
36 122
37 154
38 36
39 51
40 123
41 265
42 587
43 119
44 73
45 114
46 519
47 124
48 47
49 397
50 199

<precedence relations>
1,5
1,6
1,9
2,8
2,21
2,22
3,19
3,24
3,27
3,29
4,7
5,13
5,14
6,10
6,11
6,12
7,13
7,17
8,11
9,10
9,12
9,14
10,15
10,16
11,20
11,26
12,19
12,40
13,24
13,32
13,42
14,15
15,17
15,18
15,19
15,20
15,21
16,20
17,26
17,31
18,22
19,22
20,23
20,24
20,25
20,27
21,34
21,35
22,28
22,33
23,29
23,37
24,33
24,44
25,42
26,50
27,30
27,31
27,32
28,42
29,41
30,34
30,44
31,34
31,35
31,36
32,34
33,34
33,36
34,37
34,38
34,39
35,40
35,41
35,42
37,46
38,43
38,45
40,44
44,47
44,49
45,47
45,48
46,47
46,48
46,49
46,50

<end>
